; benchmark generated from python API
(set-info :status unknown)
(declare-datatypes ((IntState 0)) (((Mk1 (val1 Int)) (Mk2 (val2 Int)))))
 (declare-fun c_main_~i~6 () Int)
(declare-fun c_main_~k~6 () Int)
(declare-fun c_main_~j~6 () Int)
(assert
 (let (($x136 (<= c_main_~i~6 3)))
 (let (($x66 (exists ((main_~i~6_st IntState) (val!150 Int) )(let ((?x56 (val2 main_~i~6_st)))
 (let (($x143 (<= ?x56 4)))
 (let (($x41 (and (<= c_main_~j~6 (+ (* 2 ?x56) 2)) $x143 (<= ?x56 c_main_~k~6))))
 (let (($x52 (not (= main_~i~6_st (Mk1 val!150)))))
 (and $x52 $x41))))))
 ))
 (let (($x24 (<= c_main_~j~6 (+ (* 2 c_main_~i~6) 2))))
 (let (($x117 (<= c_main_~i~6 4)))
 (let (($x132 (<= c_main_~j~6 (+ (* 2 c_main_~i~6) 1))))
 (let (($x171 (exists ((main_~i~6 Int) )(let (($x85 (<= main_~i~6 4)))
 (and (<= c_main_~j~6 (+ (* 2 main_~i~6) 2)) $x85 (<= main_~i~6 c_main_~k~6))))
 ))
 (let (($x35 (<= c_main_~i~6 2)))
 (and (and $x132 $x117 $x24 $x35 $x171 $x136) (not (and $x132 $x117 $x24 $x66 $x136)))))))))))
(check-sat)
